244 5
10 10 10 10 10 

0 0 0 0 0 0 5 2 14 26 38 50 
0 0 0 0 0 0 1 3 
10 0 0 0 1 0 2 5 4 
3 0 0 0 7 0 4 10 7 6 198 
3 0 0 0 5 0 3 10 7 6 
4 0 0 0 1 0 3 12 9 8 
1 0 0 0 5 0 1 8 
1 0 0 0 4 0 1 11 
4 0 0 0 3 0 1 11 
4 0 0 0 8 0 1 11 
9 0 0 0 9 0 1 13 
6 0 0 0 7 0 1 13 
0 0 0 0 0 0 1 62 
0 0 0 0 0 0 1 15 
8 1 0 0 0 0 3 19 18 16 
8 6 0 0 0 0 3 24 22 17 
6 4 0 0 0 0 2 23 20 
9 6 0 0 0 0 2 22 20 
9 6 0 0 0 0 2 22 21 
6 5 0 0 0 0 1 21 
4 8 0 0 0 0 1 25 
3 5 0 0 0 0 1 25 
7 5 0 0 0 0 2 25 68 
9 4 0 0 0 0 1 25 
0 0 0 0 0 0 1 62 
0 0 0 0 0 0 5 27 29 31 32 34 
7 0 1 0 0 0 1 28 
6 0 6 0 0 0 2 36 30 
3 0 5 0 0 0 2 36 33 
8 0 5 0 0 0 1 33 
6 0 7 0 0 0 2 33 174 
7 0 8 0 0 0 1 33 
3 0 5 0 0 0 1 35 
9 0 4 0 0 0 1 35 
1 0 4 0 0 0 1 37 
5 0 5 0 0 0 1 37 
0 0 0 0 0 0 1 62 
0 0 0 0 0 0 2 39 41 
4 0 1 0 0 0 3 48 47 40 
4 0 4 0 0 0 3 46 45 42 
2 0 4 0 0 0 2 45 43 
8 0 8 0 0 0 1 43 
8 0 7 0 0 0 1 44 
10 0 3 0 0 0 1 49 
9 0 4 0 0 0 1 49 
8 0 6 0 0 0 2 49 131 
10 0 8 0 0 0 1 49 
9 0 5 0 0 0 1 49 
0 0 0 0 0 0 1 62 
0 0 0 0 0 0 3 51 52 53 
1 0 0 0 0 2 3 57 55 54 
7 0 0 0 0 6 3 57 55 54 
2 0 0 0 0 4 2 57 54 
6 0 0 0 0 4 2 59 56 
1 0 0 0 0 6 1 56 
10 0 0 0 0 2 1 58 
1 0 0 0 0 4 1 58 
7 0 0 0 0 6 2 60 224 
10 0 0 0 0 10 1 60 
2 0 0 0 0 6 1 61 
0 0 0 0 0 0 1 62 
0 0 0 0 0 0 5 63 75 87 99 111 
0 0 0 0 0 0 3 64 67 70 
5 0 1 0 0 0 2 73 65 
8 0 5 0 0 0 2 68 66 
2 0 3 0 0 0 2 72 69 
10 0 10 0 0 0 1 68 
7 0 6 0 0 0 1 72 
4 0 5 0 0 0 1 71 
10 0 5 0 0 0 1 71 
1 0 4 0 0 0 1 74 
7 0 5 0 0 0 2 74 108 
10 0 6 0 0 0 1 74 
0 0 0 0 0 0 1 123 
0 0 0 0 0 0 4 76 80 81 198 
9 0 0 0 0 1 2 83 77 
9 0 0 0 0 5 2 79 78 
7 0 0 0 0 8 2 85 82 
3 0 0 0 0 6 2 85 82 
2 0 0 0 0 8 1 82 
5 0 0 0 0 6 1 82 
6 0 0 0 0 4 1 84 
10 0 0 0 0 4 1 85 
9 0 0 0 0 4 1 86 
6 0 0 0 0 4 1 86 
0 0 0 0 0 0 1 123 
0 0 0 0 0 0 2 88 165 
9 0 1 0 0 0 3 93 90 89 
5 0 4 0 0 0 3 97 96 92 
2 0 5 0 0 0 2 95 91 
4 0 6 0 0 0 1 92 
1 0 7 0 0 0 1 94 
2 0 6 0 0 0 1 94 
7 0 5 0 0 0 1 98 
3 0 4 0 0 0 1 98 
8 0 3 0 0 0 1 98 
9 0 9 0 0 0 1 98 
0 0 0 0 0 0 1 123 
0 0 0 0 0 0 3 100 103 109 
8 0 0 1 0 0 2 107 101 
10 0 0 7 0 0 2 108 102 
2 0 0 4 0 0 2 105 104 
1 0 0 4 0 0 3 107 105 161 
9 0 0 3 0 0 1 106 
10 0 0 3 0 0 1 110 
9 0 0 7 0 0 1 110 
6 0 0 6 0 0 1 110 
6 0 0 7 0 0 1 110 
4 0 0 8 0 0 1 110 
0 0 0 0 0 0 1 123 
0 0 0 0 0 0 4 112 115 116 119 
9 0 1 0 0 0 1 113 
4 0 8 0 0 0 3 118 114 158 
6 0 5 0 0 0 2 120 117 
4 0 7 0 0 0 2 121 120 
6 0 5 0 0 0 1 117 
10 0 4 0 0 0 1 121 
1 0 8 0 0 0 1 120 
10 0 2 0 0 0 1 120 
4 0 3 0 0 0 1 122 
6 0 7 0 0 0 1 122 
0 0 0 0 0 0 1 123 
0 0 0 0 0 0 5 124 136 148 160 172 
0 0 0 0 0 0 3 125 128 130 
5 0 0 1 0 0 2 133 126 
9 0 0 6 0 0 2 134 127 
2 0 0 4 0 0 3 131 129 170 
5 0 0 4 0 0 2 133 131 
1 0 0 7 0 0 1 132 
7 0 0 5 0 0 1 133 
1 0 0 8 0 0 1 135 
6 0 0 5 0 0 1 135 
3 0 0 5 0 0 1 135 
6 0 0 5 0 0 1 135 
0 0 0 0 0 0 1 184 
0 0 0 0 0 0 1 137 
3 1 0 0 0 0 3 141 138 176 
4 4 0 0 0 0 2 140 139 
8 3 0 0 0 0 4 146 145 143 142 
1 7 0 0 0 0 2 143 142 
4 9 0 0 0 0 2 143 142 
5 4 0 0 0 0 1 144 
7 7 0 0 0 0 1 144 
3 6 0 0 0 0 1 147 
3 6 0 0 0 0 1 147 
2 3 0 0 0 0 1 147 
0 0 0 0 0 0 1 184 
0 0 0 0 0 0 4 149 152 154 158 
5 1 0 0 0 0 2 151 150 
7 7 0 0 0 0 3 157 153 165 
1 3 0 0 0 0 1 153 
6 6 0 0 0 0 1 153 
3 5 0 0 0 0 1 155 
5 6 0 0 0 0 1 155 
10 3 0 0 0 0 1 156 
10 7 0 0 0 0 1 159 
2 6 0 0 0 0 1 159 
9 6 0 0 0 0 1 159 
0 0 0 0 0 0 1 184 
0 0 0 0 0 0 2 161 162 
2 0 0 1 0 0 1 163 
4 0 0 7 0 0 1 163 
9 0 0 2 0 0 1 164 
8 0 0 9 0 0 3 167 166 165 
2 0 0 8 0 0 3 170 169 168 
5 0 0 5 0 0 3 170 169 168 
5 0 0 3 0 0 1 168 
8 0 0 3 0 0 1 171 
9 0 0 5 0 0 1 171 
6 0 0 7 0 0 1 171 
0 0 0 0 0 0 1 184 
0 0 0 0 0 0 2 173 175 
10 1 0 0 0 0 1 174 
5 4 0 0 0 0 3 181 178 176 
9 7 0 0 0 0 3 182 178 177 
3 5 0 0 0 0 1 177 
8 5 0 0 0 0 1 179 
4 3 0 0 0 0 1 180 
9 4 0 0 0 0 1 183 
3 8 0 0 0 0 1 183 
7 7 0 0 0 0 1 183 
9 6 0 0 0 0 1 183 
0 0 0 0 0 0 1 184 
0 0 0 0 0 0 4 185 197 209 221 
0 0 0 0 0 0 4 186 187 188 195 
1 1 0 0 0 0 2 192 189 
6 6 0 0 0 0 3 194 192 190 
3 5 0 0 0 0 1 189 
4 3 0 0 0 0 2 194 190 
2 8 0 0 0 0 1 191 
2 5 0 0 0 0 1 193 
8 5 0 0 0 0 1 193 
9 7 0 0 0 0 1 196 
5 6 0 0 0 0 1 196 
4 4 0 0 0 0 1 196 
0 0 0 0 0 0 1 233 
0 0 0 0 0 0 3 198 201 204 
5 0 0 0 0 1 1 199 
3 0 0 0 0 7 2 202 200 
9 0 0 0 0 2 2 205 203 
1 0 0 0 0 4 2 205 202 
9 0 0 0 0 7 2 207 206 
3 0 0 0 0 6 2 207 206 
2 0 0 0 0 4 2 207 206 
8 0 0 0 0 7 1 206 
9 0 0 0 0 6 1 208 
8 0 0 0 0 6 1 208 
0 0 0 0 0 0 1 233 
0 0 0 0 0 0 3 210 211 213 
4 0 0 0 0 1 2 214 212 
1 0 0 0 0 4 1 212 
2 0 0 0 0 4 3 219 218 215 
5 0 0 0 0 4 2 219 214 
8 0 0 0 0 7 2 218 216 
6 0 0 0 0 9 1 216 
1 0 0 0 0 6 1 217 
3 0 0 0 0 3 1 220 
9 0 0 0 0 3 1 220 
3 0 0 0 0 9 1 220 
0 0 0 0 0 0 1 233 
0 0 0 0 0 0 1 222 
5 0 0 0 0 1 3 226 224 223 
5 0 0 0 0 6 2 227 225 
8 0 0 0 0 2 1 225 
4 0 0 0 0 6 3 231 230 228 
9 0 0 0 0 8 3 231 230 229 
10 0 0 0 0 8 2 230 228 
7 0 0 0 0 5 1 229 
10 0 0 0 0 3 1 232 
6 0 0 0 0 4 1 232 
10 0 0 0 0 7 1 232 
0 0 0 0 0 0 1 233 
0 0 0 0 0 0 4 234 235 237 243 
1 0 0 0 0 1 2 239 238 
3 0 0 0 0 5 1 236 
7 0 0 0 0 7 1 238 
1 0 0 0 0 5 1 238 
8 0 0 0 0 6 2 242 240 
5 0 0 0 0 5 1 240 
9 0 0 0 0 4 1 241 
8 0 0 0 0 3 1 244 
6 0 0 0 0 9 1 244 
10 0 0 0 0 5 1 244 
0 0 0 0 0 0 0 
